20 7
61 114 112 46 123 48 105
4 2 4 5 5 3 3 2 4 5 5 2 5 4 2 2 2 5 4 5
13 26 25 10 33 15 21
7 16 11 25 24 9 13
6 10 1 16 14 6 9
11 12 5 14 12 10 13
10 3 12 13 12 9 4
6 5 4 13 11 4 5
4 8 2 16 14 3 7
4 12 6 21 19 5 10
4 11 4 19 18 4 9
4 6 9 17 16 4 3
11 9 6 9 8 10 10
7 14 5 20 19 8 12
9 15 6 21 19 9 14
13 15 7 16 15 13 16
9 9 3 13 11 8 10
4 9 9 20 19 4 6
7 8 12 20 18 7 5
13 4 13 11 10 11 7
8 12 3 17 16 8 12
15 7 12 4 3 13 11
11 2 10 9 8 9 6
